n_res = 4;
rcap = [28, 29, 70, 67];
rtype = [1, 1, 2, 2];
n_tasks = 10;
modes = [ {1, 2, 3}, {4, 5, 6}, {7, 8, 9}, {10, 11, 12}, {13, 14, 15}, {16, 17, 18}, {19, 20, 21}, {22, 23, 24}, {25, 26, 27}, {28, 29, 30} ];
succ = [ {9}, {4, 6, 8}, {5}, {5, 7}, {9, 10}, {7, 9}, {10}, {}, {}, {} ];
n_opt = 30;
dur = [6, 7, 7, 3, 6, 8, 2, 5, 9, 4, 4, 8, 2, 4, 6, 3, 4, 6, 1, 2, 5, 1, 6, 9, 1, 4, 5, 5, 8, 9];
rreq = [|  8,  7,  8,  5,  3,  2,  8,  7,  7,  6,  5,  3,  6,  6,  5,  9,  6,  6,  7,  6,  5,  5,  4,  4,  9,  8,  5, 10,  9,  9
        |  4,  4,  3,  9,  6,  3,  7,  7,  3,  7,  7,  6,  2,  2,  2, 10,  7,  4,  8,  7,  4,  8,  4,  3, 10,  9,  9,  9,  5,  3
        |  9,  3,  4,  3,  3,  3,  7,  5,  4,  5,  7,  2, 10,  9,  8,  6,  6,  4, 10,  6,  5,  5,  4,  4,  9,  8,  8,  4,  4,  2
        |  9,  4,  4,  6,  4,  3,  8,  7,  5,  7,  5,  3,  2,  1,  1,  9,  9,  8, 10,  5,  3,  9,  9,  8,  5,  4,  2,  2,  1,  1 |];
